treewidth/data/EllinghamHorton78Graph.gr
p tw 78 117
1 2
1 46
1 58
2 13
2 5
13 24
13 68
24 35
24 7
35 46
35 78
46 57
57 68
57 4
68 8
77 78
77 6
77 16
78 3
3 4
3 71
4 5
5 6
6 7
7 71
8 9
8 14
9 10
9 21
10 11
10 16
11 12
11 23
12 14
12 18
14 15
15 16
15 20
17 18
17 22
17 71
18 19
19 20
19 70
20 21
21 22
22 23
23 67
25 26
25 30
25 49
26 27
26 38
27 28
27 32
28 29
28 39
29 30
29 34
30 31
31 37
31 61
32 63
32 64
33 34
33 56
33 73
34 36
36 37
36 40
37 38
38 73
39 40
39 73
40 41
41 42
41 47
42 43
42 54
43 44
43 49
44 45
44 74
45 47
45 51
47 48
48 49
48 53
50 51
50 55
50 72
51 52
52 53
52 56
53 54
54 55
55 74
56 74
58 59
58 62
59 60
59 70
60 61
60 76
61 65
62 63
62 67
63 76
64 69
64 72
65 66
65 72
66 67
66 75
69 70
69 75
75 76
