treewidth/data/EllinghamHorton78Graph.td
c width = 6, time = 0.520363
s td 50 7 78
b 1 32 50 61 72
b 2 25 32 33 40 41 50 61
b 3 25 33 41 44 50 52 54
b 4 33 44 50 52 54 74
b 5 33 52 56 74
b 6 50 54 55 74
b 7 25 41 44 48 50 52 54
b 8 48 52 53 54
b 9 41 44 45 48 50 52
b 10 45 50 51 52
b 11 41 45 47 48
b 12 25 41 43 44 48 54
b 13 25 43 48 49
b 14 41 42 43 54
b 15 25 29 32 33 38 40 61
b 16 25 29 33 37 38 40 61
b 17 29 33 34 36 37 40
b 18 25 29 30 31 37 61
b 19 25 29 32 33 38 39 40
b 20 33 38 39 73
b 21 25 27 29 32 38 39
b 22 27 28 29 39
b 23 25 26 27 38
b 24 1 19 32 61 67 70 72
b 25 1 32 61 67 70 72 76
b 26 32 61 67 70 72 75 76
b 27 61 65 66 67 72 75
b 28 32 64 69 70 72 75
b 29 1 32 61 62 67 70 76
b 30 32 62 63 76
b 31 1 59 61 62 70 76
b 32 59 60 61 76
b 33 1 58 59 62
b 34 1 16 17 19 67 68 71
b 35 11 16 17 19 21 67 68
b 36 11 17 21 22 23 67
b 37 11 14 16 17 19 21 68
b 38 14 15 16 19 20 21
b 39 11 12 14 17 18 19
b 40 9 11 14 16 21 68
b 41 9 10 11 16
b 42 8 9 14 68
b 43 1 4 6 16 35 68 71
b 44 1 4 35 46 57 68
b 45 4 6 16 35 71 78
b 46 6 16 77 78
b 47 3 4 71 78
b 48 1 4 6 13 35 68 71
b 49 6 7 13 24 35 71
b 50 1 2 4 5 6 13
1 2
2 3
3 4
4 5
4 6
3 7
7 8
7 9
9 10
9 11
7 12
12 13
12 14
2 15
15 16
16 17
16 18
15 19
19 20
19 21
21 22
21 23
1 24
24 25
25 26
26 27
26 28
25 29
29 30
29 31
31 32
31 33
24 34
34 35
35 36
35 37
37 38
37 39
37 40
40 41
40 42
34 43
43 44
43 45
45 46
45 47
43 48
48 49
48 50
